p edge 200 961
e 1 2 1
e 1 200 1
e 1 3 1
e 1 199 1
e 1 4 1
e 1 198 1
e 1 46 1
e 1 36 1
e 1 189 1
e 2 3 1
e 2 4 1
e 2 200 1
e 2 5 1
e 2 199 1
e 2 103 1
e 2 123 1
e 2 71 1
e 2 102 1
e 2 162 1
e 3 4 1
e 3 5 1
e 3 6 1
e 3 200 1
e 3 153 1
e 4 5 1
e 4 6 1
e 4 7 1
e 4 142 1
e 4 39 1
e 4 181 1
e 5 6 1
e 5 7 1
e 5 8 1
e 5 85 1
e 5 197 1
e 5 141 1
e 6 7 1
e 6 8 1
e 6 9 1
e 6 165 1
e 6 87 1
e 6 27 1
e 7 8 1
e 7 9 1
e 7 10 1
e 7 94 1
e 7 12 1
e 7 114 1
e 8 9 1
e 8 10 1
e 8 11 1
e 8 66 1
e 8 111 1
e 8 112 1
e 8 148 1
e 8 160 1
e 9 10 1
e 9 11 1
e 9 12 1
e 9 68 1
e 9 178 1
e 9 89 1
e 10 11 1
e 10 12 1
e 10 13 1
e 10 97 1
e 10 51 1
e 10 27 1
e 10 14 1
e 10 91 1
e 10 99 1
e 11 12 1
e 11 13 1
e 11 14 1
e 11 142 1
e 11 89 1
e 11 41 1
e 11 83 1
e 12 13 1
e 12 14 1
e 12 15 1
e 12 94 1
e 12 85 1
e 13 14 1
e 13 15 1
e 13 16 1
e 13 45 1
e 13 83 1
e 13 120 1
e 14 15 1
e 14 16 1
e 14 17 1
e 14 198 1
e 14 28 1
e 14 82 1
e 14 128 1
e 15 16 1
e 15 17 1
e 15 18 1
e 15 81 1
e 15 124 1
e 16 17 1
e 16 18 1
e 16 19 1
e 16 162 1
e 16 105 1
e 16 173 1
e 17 18 1
e 17 19 1
e 17 20 1
e 17 102 1
e 17 21 1
e 17 79 1
e 18 19 1
e 18 20 1
e 18 21 1
e 18 97 1
e 18 83 1
e 18 35 1
e 18 36 1
e 18 96 1
e 19 20 1
e 19 21 1
e 19 22 1
e 19 46 1
e 20 21 1
e 20 22 1
e 20 23 1
e 20 32 1
e 20 58 1
e 20 145 1
e 20 160 1
e 21 22 1
e 21 23 1
e 21 24 1
e 21 98 1
e 21 129 1
e 21 84 1
e 21 93 1
e 21 107 1
e 21 161 1
e 22 23 1
e 22 24 1
e 22 25 1
e 22 151 1
e 23 24 1
e 23 25 1
e 23 26 1
e 23 165 1
e 23 90 1
e 23 92 1
e 24 25 1
e 24 26 1
e 24 27 1
e 24 29 1
e 24 44 1
e 24 146 1
e 24 162 1
e 25 26 1
e 25 27 1
e 25 28 1
e 25 162 1
e 25 110 1
e 26 27 1
e 26 28 1
e 26 29 1
e 26 115 1
e 26 182 1
e 26 199 1
e 27 28 1
e 27 29 1
e 27 30 1
e 27 40 1
e 27 156 1
e 27 90 1
e 28 29 1
e 28 30 1
e 28 31 1
e 28 74 1
e 28 146 1
e 28 121 1
e 29 30 1
e 29 31 1
e 29 32 1
e 29 43 1
e 29 38 1
e 29 67 1
e 29 142 1
e 30 31 1
e 30 32 1
e 30 33 1
e 30 186 1
e 30 63 1
e 30 85 1
e 30 93 1
e 30 145 1
e 30 178 1
e 30 193 1
e 31 32 1
e 31 33 1
e 31 34 1
e 31 43 1
e 31 42 1
e 31 139 1
e 31 183 1
e 32 33 1
e 32 34 1
e 32 35 1
e 32 112 1
e 32 116 1
e 33 34 1
e 33 35 1
e 33 36 1
e 33 64 1
e 33 62 1
e 33 122 1
e 33 185 1
e 34 35 1
e 34 36 1
e 34 37 1
e 34 158 1
e 34 90 1
e 35 36 1
e 35 37 1
e 35 38 1
e 35 73 1
e 35 67 1
e 35 81 1
e 35 188 1
e 36 37 1
e 36 38 1
e 36 39 1
e 36 46 1
e 36 185 1
e 37 38 1
e 37 39 1
e 37 40 1
e 37 115 1
e 37 181 1
e 38 39 1
e 38 40 1
e 38 41 1
e 38 82 1
e 38 51 1
e 38 72 1
e 38 90 1
e 39 40 1
e 39 41 1
e 39 42 1
e 39 86 1
e 39 182 1
e 40 41 1
e 40 42 1
e 40 43 1
e 40 55 1
e 40 93 1
e 40 130 1
e 41 42 1
e 41 43 1
e 41 44 1
e 41 148 1
e 41 101 1
e 41 186 1
e 42 43 1
e 42 44 1
e 42 45 1
e 42 147 1
e 42 126 1
e 43 44 1
e 43 45 1
e 43 46 1
e 43 123 1
e 43 101 1
e 44 45 1
e 44 46 1
e 44 47 1
e 44 173 1
e 44 135 1
e 45 46 1
e 45 47 1
e 45 48 1
e 45 76 1
e 45 135 1
e 45 122 1
e 46 47 1
e 46 48 1
e 46 49 1
e 46 178 1
e 46 161 1
e 46 86 1
e 46 63 1
e 47 48 1
e 47 49 1
e 47 50 1
e 47 62 1
e 47 79 1
e 47 122 1
e 47 161 1
e 48 49 1
e 48 50 1
e 48 51 1
e 48 140 1
e 48 176 1
e 49 50 1
e 49 51 1
e 49 52 1
e 49 135 1
e 49 115 1
e 49 153 1
e 50 51 1
e 50 52 1
e 50 53 1
e 50 187 1
e 51 52 1
e 51 53 1
e 51 54 1
e 51 190 1
e 51 107 1
e 52 53 1
e 52 54 1
e 52 55 1
e 52 84 1
e 52 113 1
e 53 54 1
e 53 55 1
e 53 56 1
e 53 157 1
e 54 55 1
e 54 56 1
e 54 57 1
e 54 133 1
e 54 165 1
e 54 65 1
e 54 131 1
e 54 170 1
e 55 56 1
e 55 57 1
e 55 58 1
e 55 111 1
e 56 57 1
e 56 58 1
e 56 59 1
e 56 167 1
e 56 71 1
e 56 137 1
e 56 156 1
e 56 192 1
e 57 58 1
e 57 59 1
e 57 60 1
e 57 164 1
e 58 59 1
e 58 60 1
e 58 61 1
e 58 123 1
e 58 70 1
e 58 139 1
e 58 179 1
e 59 60 1
e 59 61 1
e 59 62 1
e 60 61 1
e 60 62 1
e 60 63 1
e 60 86 1
e 60 109 1
e 61 62 1
e 61 63 1
e 61 64 1
e 61 86 1
e 61 89 1
e 61 134 1
e 61 68 1
e 61 74 1
e 61 124 1
e 61 174 1
e 61 199 1
e 62 63 1
e 62 64 1
e 62 65 1
e 62 108 1
e 63 64 1
e 63 65 1
e 63 66 1
e 63 179 1
e 63 98 1
e 64 65 1
e 64 66 1
e 64 67 1
e 64 167 1
e 64 77 1
e 65 66 1
e 65 67 1
e 65 68 1
e 65 128 1
e 65 164 1
e 66 67 1
e 66 68 1
e 66 69 1
e 67 68 1
e 67 69 1
e 67 70 1
e 67 152 1
e 67 178 1
e 68 69 1
e 68 70 1
e 68 71 1
e 68 124 1
e 69 70 1
e 69 71 1
e 69 72 1
e 69 99 1
e 69 157 1
e 69 86 1
e 70 71 1
e 70 72 1
e 70 73 1
e 70 157 1
e 70 126 1
e 70 164 1
e 71 72 1
e 71 73 1
e 71 74 1
e 71 88 1
e 71 94 1
e 71 107 1
e 72 73 1
e 72 74 1
e 72 75 1
e 72 185 1
e 72 105 1
e 73 74 1
e 73 75 1
e 73 76 1
e 73 176 1
e 73 192 1
e 73 112 1
e 73 113 1
e 73 142 1
e 73 194 1
e 74 75 1
e 74 76 1
e 74 77 1
e 74 108 1
e 75 76 1
e 75 77 1
e 75 78 1
e 75 83 1
e 75 164 1
e 75 126 1
e 76 77 1
e 76 78 1
e 76 79 1
e 77 78 1
e 77 79 1
e 77 80 1
e 77 144 1
e 77 190 1
e 78 79 1
e 78 80 1
e 78 81 1
e 78 124 1
e 78 122 1
e 78 88 1
e 78 165 1
e 79 80 1
e 79 81 1
e 79 82 1
e 79 200 1
e 79 91 1
e 80 81 1
e 80 82 1
e 80 83 1
e 80 152 1
e 80 180 1
e 80 129 1
e 81 82 1
e 81 83 1
e 81 84 1
e 81 177 1
e 81 171 1
e 82 83 1
e 82 84 1
e 82 85 1
e 82 197 1
e 82 125 1
e 82 151 1
e 83 84 1
e 83 85 1
e 83 86 1
e 83 153 1
e 83 96 1
e 84 85 1
e 84 86 1
e 84 87 1
e 84 102 1
e 84 183 1
e 85 86 1
e 85 87 1
e 85 88 1
e 85 108 1
e 85 139 1
e 86 87 1
e 86 88 1
e 86 89 1
e 86 109 1
e 87 88 1
e 87 89 1
e 87 90 1
e 87 152 1
e 87 136 1
e 87 133 1
e 87 192 1
e 88 89 1
e 88 90 1
e 88 91 1
e 88 122 1
e 88 172 1
e 88 190 1
e 89 90 1
e 89 91 1
e 89 92 1
e 89 109 1
e 89 142 1
e 90 91 1
e 90 92 1
e 90 93 1
e 90 95 1
e 91 92 1
e 91 93 1
e 91 94 1
e 91 126 1
e 91 191 1
e 92 93 1
e 92 94 1
e 92 95 1
e 92 166 1
e 92 158 1
e 93 94 1
e 93 95 1
e 93 96 1
e 94 95 1
e 94 96 1
e 94 97 1
e 94 179 1
e 94 144 1
e 95 96 1
e 95 97 1
e 95 98 1
e 95 196 1
e 95 145 1
e 95 146 1
e 95 189 1
e 96 97 1
e 96 98 1
e 96 99 1
e 97 98 1
e 97 99 1
e 97 100 1
e 97 152 1
e 97 124 1
e 97 129 1
e 98 99 1
e 98 100 1
e 98 101 1
e 98 127 1
e 98 129 1
e 99 100 1
e 99 101 1
e 99 102 1
e 99 103 1
e 100 101 1
e 100 102 1
e 100 103 1
e 100 175 1
e 100 138 1
e 101 102 1
e 101 103 1
e 101 104 1
e 101 140 1
e 101 139 1
e 101 117 1
e 102 103 1
e 102 104 1
e 102 105 1
e 102 123 1
e 102 151 1
e 103 104 1
e 103 105 1
e 103 106 1
e 103 165 1
e 104 105 1
e 104 106 1
e 104 107 1
e 104 199 1
e 104 189 1
e 105 106 1
e 105 107 1
e 105 108 1
e 105 112 1
e 105 167 1
e 106 107 1
e 106 108 1
e 106 109 1
e 106 133 1
e 106 163 1
e 106 127 1
e 106 140 1
e 106 159 1
e 107 108 1
e 107 109 1
e 107 110 1
e 108 109 1
e 108 110 1
e 108 111 1
e 108 123 1
e 108 183 1
e 109 110 1
e 109 111 1
e 109 112 1
e 109 133 1
e 110 111 1
e 110 112 1
e 110 113 1
e 110 199 1
e 110 153 1
e 110 187 1
e 111 112 1
e 111 113 1
e 111 114 1
e 112 113 1
e 112 114 1
e 112 115 1
e 112 151 1
e 112 194 1
e 112 138 1
e 112 158 1
e 113 114 1
e 113 115 1
e 113 116 1
e 113 128 1
e 113 180 1
e 113 188 1
e 114 115 1
e 114 116 1
e 114 117 1
e 114 148 1
e 115 116 1
e 115 117 1
e 115 118 1
e 115 164 1
e 116 117 1
e 116 118 1
e 116 119 1
e 116 149 1
e 116 129 1
e 117 118 1
e 117 119 1
e 117 120 1
e 117 172 1
e 117 140 1
e 117 167 1
e 118 119 1
e 118 120 1
e 118 121 1
e 118 187 1
e 118 123 1
e 118 136 1
e 118 141 1
e 119 120 1
e 119 121 1
e 119 122 1
e 119 169 1
e 119 123 1
e 119 170 1
e 120 121 1
e 120 122 1
e 120 123 1
e 120 130 1
e 121 122 1
e 121 123 1
e 121 124 1
e 121 200 1
e 121 131 1
e 121 143 1
e 121 175 1
e 122 123 1
e 122 124 1
e 122 125 1
e 122 134 1
e 123 124 1
e 123 125 1
e 123 126 1
e 124 125 1
e 124 126 1
e 124 127 1
e 124 168 1
e 125 126 1
e 125 127 1
e 125 128 1
e 126 127 1
e 126 128 1
e 126 129 1
e 127 128 1
e 127 129 1
e 127 130 1
e 127 163 1
e 127 197 1
e 128 129 1
e 128 130 1
e 128 131 1
e 128 184 1
e 129 130 1
e 129 131 1
e 129 132 1
e 130 131 1
e 130 132 1
e 130 133 1
e 130 190 1
e 130 144 1
e 131 132 1
e 131 133 1
e 131 134 1
e 131 150 1
e 132 133 1
e 132 134 1
e 132 135 1
e 132 194 1
e 133 134 1
e 133 135 1
e 133 136 1
e 133 166 1
e 134 135 1
e 134 136 1
e 134 137 1
e 134 161 1
e 135 136 1
e 135 137 1
e 135 138 1
e 136 137 1
e 136 138 1
e 136 139 1
e 136 177 1
e 137 138 1
e 137 139 1
e 137 140 1
e 137 186 1
e 137 174 1
e 138 139 1
e 138 140 1
e 138 141 1
e 138 156 1
e 139 140 1
e 139 141 1
e 139 142 1
e 140 141 1
e 140 142 1
e 140 143 1
e 140 184 1
e 141 142 1
e 141 143 1
e 141 144 1
e 141 164 1
e 142 143 1
e 142 144 1
e 142 145 1
e 142 158 1
e 142 189 1
e 143 144 1
e 143 145 1
e 143 146 1
e 144 145 1
e 144 146 1
e 144 147 1
e 144 184 1
e 145 146 1
e 145 147 1
e 145 148 1
e 146 147 1
e 146 148 1
e 146 149 1
e 146 155 1
e 147 148 1
e 147 149 1
e 147 150 1
e 147 193 1
e 148 149 1
e 148 150 1
e 148 151 1
e 148 192 1
e 148 171 1
e 149 150 1
e 149 151 1
e 149 152 1
e 149 158 1
e 149 154 1
e 149 185 1
e 150 151 1
e 150 152 1
e 150 153 1
e 151 152 1
e 151 153 1
e 151 154 1
e 152 153 1
e 152 154 1
e 152 155 1
e 152 172 1
e 152 186 1
e 153 154 1
e 153 155 1
e 153 156 1
e 153 192 1
e 154 155 1
e 154 156 1
e 154 157 1
e 154 177 1
e 154 162 1
e 155 156 1
e 155 157 1
e 155 158 1
e 155 195 1
e 156 157 1
e 156 158 1
e 156 159 1
e 157 158 1
e 157 159 1
e 157 160 1
e 157 177 1
e 158 159 1
e 158 160 1
e 158 161 1
e 159 160 1
e 159 161 1
e 159 162 1
e 160 161 1
e 160 162 1
e 160 163 1
e 161 162 1
e 161 163 1
e 161 164 1
e 161 179 1
e 162 163 1
e 162 164 1
e 162 165 1
e 163 164 1
e 163 165 1
e 163 166 1
e 163 170 1
e 164 165 1
e 164 166 1
e 164 167 1
e 164 172 1
e 165 166 1
e 165 167 1
e 165 168 1
e 165 187 1
e 166 167 1
e 166 168 1
e 166 169 1
e 166 194 1
e 167 168 1
e 167 169 1
e 167 170 1
e 167 198 1
e 168 169 1
e 168 170 1
e 168 171 1
e 169 170 1
e 169 171 1
e 169 172 1
e 170 171 1
e 170 172 1
e 170 173 1
e 171 172 1
e 171 173 1
e 171 174 1
e 172 173 1
e 172 174 1
e 172 175 1
e 173 174 1
e 173 175 1
e 173 176 1
e 174 175 1
e 174 176 1
e 174 177 1
e 175 176 1
e 175 177 1
e 175 178 1
e 176 177 1
e 176 178 1
e 176 179 1
e 176 187 1
e 177 178 1
e 177 179 1
e 177 180 1
e 178 179 1
e 178 180 1
e 178 181 1
e 179 180 1
e 179 181 1
e 179 182 1
e 180 181 1
e 180 182 1
e 180 183 1
e 181 182 1
e 181 183 1
e 181 184 1
e 181 196 1
e 182 183 1
e 182 184 1
e 182 185 1
e 182 187 1
e 183 184 1
e 183 185 1
e 183 186 1
e 184 185 1
e 184 186 1
e 184 187 1
e 184 195 1
e 185 186 1
e 185 187 1
e 185 188 1
e 186 187 1
e 186 188 1
e 186 189 1
e 187 188 1
e 187 189 1
e 187 190 1
e 188 189 1
e 188 190 1
e 188 191 1
e 189 190 1
e 189 191 1
e 189 192 1
e 190 191 1
e 190 192 1
e 190 193 1
e 191 192 1
e 191 193 1
e 191 194 1
e 192 193 1
e 192 194 1
e 192 195 1
e 193 194 1
e 193 195 1
e 193 196 1
e 194 195 1
e 194 196 1
e 194 197 1
e 195 196 1
e 195 197 1
e 195 198 1
e 196 197 1
e 196 198 1
e 196 199 1
e 197 198 1
e 197 199 1
e 197 200 1
e 198 199 1
e 198 200 1
e 199 200 1